NAME          DCAP_2_3_3_500_SS472
ROWS
 N  OBJ
 L  CON1
 L  CON2
 L  CON3
 L  CON4
 L  CON5
 L  CON6
 L  CON7
 L  CON8
 L  CON9
 L  CON10
 L  CON11
 L  CON12
 E  CON13
 E  CON14
 E  CON15
 E  CON16
 E  CON17
 E  CON18
 E  CON19
 E  CON20
 E  CON21
COLUMNS
    x[1,1]    OBJ       6.180167      CON1      1.000000    
    x[1,1]    CON7      -1.000000     CON8      -1.000000   
    x[1,1]    CON9      -1.000000   
    x[1,2]    OBJ       6.563535      CON2      1.000000    
    x[1,2]    CON8      -1.000000     CON9      -1.000000   
    x[1,3]    OBJ       7.443064      CON3      1.000000    
    x[1,3]    CON9      -1.000000   
    x[2,1]    OBJ       6.732585      CON4      1.000000    
    x[2,1]    CON10     -1.000000     CON11     -1.000000   
    x[2,1]    CON12     -1.000000   
    x[2,2]    OBJ       5.039546      CON5      1.000000    
    x[2,2]    CON11     -1.000000     CON12     -1.000000   
    x[2,3]    OBJ       6.054841      CON6      1.000000    
    x[2,3]    CON12     -1.000000   
    MARKER    'MARKER'                'INTORG'
    u[1,1]    OBJ       48.076654     CON1      -1.000000   
    u[1,2]    OBJ       20.066487     CON2      -1.000000   
    u[1,3]    OBJ       32.230043     CON3      -1.000000   
    u[2,1]    OBJ       49.996186     CON4      -1.000000   
    u[2,2]    OBJ       49.466655     CON5      -1.000000   
    u[2,3]    OBJ       27.484319     CON6      -1.000000   
    y[1,1,1]  OBJ       6.074529      CON7      0.982546    
    y[1,1,1]  CON13     1.000000    
    y[1,1,2]  OBJ       5.132592      CON8      1.232417    
    y[1,1,2]  CON14     1.000000    
    y[1,1,3]  OBJ       7.448039      CON9      0.920205    
    y[1,1,3]  CON15     1.000000    
    y[1,2,1]  OBJ       9.778534      CON7      1.137514    
    y[1,2,1]  CON16     1.000000    
    y[1,2,2]  OBJ       5.914137      CON8      1.125374    
    y[1,2,2]  CON17     1.000000    
    y[1,2,3]  OBJ       6.524519      CON9      1.251343    
    y[1,2,3]  CON18     1.000000    
    y[1,3,1]  OBJ       6.197176      CON7      0.770164    
    y[1,3,1]  CON19     1.000000    
    y[1,3,2]  OBJ       8.804637      CON8      0.747276    
    y[1,3,2]  CON20     1.000000    
    y[1,3,3]  OBJ       9.678328      CON9      1.121100    
    y[1,3,3]  CON21     1.000000    
    y[2,1,1]  OBJ       8.519539      CON10     0.982546    
    y[2,1,1]  CON13     1.000000    
    y[2,1,2]  OBJ       6.236840      CON11     1.232417    
    y[2,1,2]  CON14     1.000000    
    y[2,1,3]  OBJ       5.062501      CON12     0.920205    
    y[2,1,3]  CON15     1.000000    
    y[2,2,1]  OBJ       9.733677      CON10     1.137514    
    y[2,2,1]  CON16     1.000000    
    y[2,2,2]  OBJ       8.595589      CON11     1.125374    
    y[2,2,2]  CON17     1.000000    
    y[2,2,3]  OBJ       6.462124      CON12     1.251343    
    y[2,2,3]  CON18     1.000000    
    y[2,3,1]  OBJ       8.228437      CON10     0.770164    
    y[2,3,1]  CON19     1.000000    
    y[2,3,2]  OBJ       5.737447      CON11     0.747276    
    y[2,3,2]  CON20     1.000000    
    y[2,3,3]  OBJ       5.804276      CON12     1.121100    
    y[2,3,3]  CON21     1.000000    
    z[1,1]    OBJ       649.402820    CON13     1.000000    
    z[1,2]    OBJ       569.121841    CON14     1.000000    
    z[1,3]    OBJ       660.225575    CON15     1.000000    
    z[2,1]    OBJ       687.724625    CON16     1.000000    
    z[2,2]    OBJ       672.102570    CON17     1.000000    
    z[2,3]    OBJ       848.563108    CON18     1.000000    
    z[3,1]    OBJ       576.721345    CON19     1.000000    
    z[3,2]    OBJ       681.137001    CON20     1.000000    
    z[3,3]    OBJ       942.456895    CON21     1.000000    
    MARKER    'MARKER'                 'INTEND'
RHS
    RHS       CON1      -0.000000     CON2      -0.000000   
    RHS       CON3      -0.000000     CON4      -0.000000   
    RHS       CON5      -0.000000     CON6      -0.000000   
    RHS       CON7      -0.000000     CON8      -0.000000   
    RHS       CON9      -0.000000     CON10     -0.000000   
    RHS       CON11     -0.000000     CON12     -0.000000   
    RHS       CON13     1.000000      CON14     1.000000    
    RHS       CON15     1.000000      CON16     1.000000    
    RHS       CON17     1.000000      CON18     1.000000    
    RHS       CON19     1.000000      CON20     1.000000    
    RHS       CON21     1.000000    
BOUNDS
 BV BOUND     u[1,1]  
 BV BOUND     u[1,2]  
 BV BOUND     u[1,3]  
 BV BOUND     u[2,1]  
 BV BOUND     u[2,2]  
 BV BOUND     u[2,3]  
 BV BOUND     y[1,1,1]
 BV BOUND     y[1,1,2]
 BV BOUND     y[1,1,3]
 BV BOUND     y[1,2,1]
 BV BOUND     y[1,2,2]
 BV BOUND     y[1,2,3]
 BV BOUND     y[1,3,1]
 BV BOUND     y[1,3,2]
 BV BOUND     y[1,3,3]
 BV BOUND     y[2,1,1]
 BV BOUND     y[2,1,2]
 BV BOUND     y[2,1,3]
 BV BOUND     y[2,2,1]
 BV BOUND     y[2,2,2]
 BV BOUND     y[2,2,3]
 BV BOUND     y[2,3,1]
 BV BOUND     y[2,3,2]
 BV BOUND     y[2,3,3]
 BV BOUND     z[1,1]  
 BV BOUND     z[1,2]  
 BV BOUND     z[1,3]  
 BV BOUND     z[2,1]  
 BV BOUND     z[2,2]  
 BV BOUND     z[2,3]  
 BV BOUND     z[3,1]  
 BV BOUND     z[3,2]  
 BV BOUND     z[3,3]  
ENDATA
